
Value of objective function: 7.34487e-315

Actual values of the variables:

Actual values of the constraints:
R1                   7.34498e-315
R2                              0
R3                              0
R4                              0
R5                              0
R6                              0
R7                              0
R8                              0
